NAME : 0
COMMENT : CVRP Instance
TYPE : CVRP
DIMENSION : 701
EDGE_WEIGHT_TYPE : EUC_2D
CAPACITY : 87
NODE_COORD_SECTION
1	0.0	0.0
2	878.0	606.0
3	35.0	593.0
4	320.0	125.0
5	189.0	244.0
6	274.0	784.0
7	900.0	310.0
8	742.0	640.0
9	800.0	448.0
10	57.0	755.0
11	522.0	327.0
12	528.0	268.0
13	461.0	328.0
14	325.0	726.0
15	788.0	496.0
16	626.0	660.0
17	720.0	744.0
18	3.0	417.0
19	32.0	306.0
20	65.0	233.0
21	827.0	442.0
22	347.0	566.0
23	545.0	389.0
24	452.0	670.0
25	236.0	564.0
26	439.0	425.0
27	69.0	17.0
28	468.0	416.0
29	103.0	137.0
30	689.0	261.0
31	300.0	603.0
32	378.0	187.0
33	790.0	584.0
34	336.0	860.0
35	386.0	199.0
36	522.0	461.0
37	356.0	214.0
38	947.0	18.0
39	431.0	1000.0
40	817.0	983.0
41	71.0	731.0
42	918.0	54.0
43	989.0	840.0
44	260.0	262.0
45	904.0	724.0
46	970.0	295.0
47	567.0	694.0
48	426.0	75.0
49	24.0	178.0
50	656.0	590.0
51	128.0	178.0
52	969.0	965.0
53	309.0	968.0
54	855.0	798.0
55	587.0	48.0
56	118.0	736.0
57	838.0	354.0
58	274.0	298.0
59	311.0	702.0
60	183.0	963.0
61	392.0	495.0
62	950.0	484.0
63	621.0	676.0
64	52.0	482.0
65	956.0	934.0
66	745.0	263.0
67	289.0	149.0
68	689.0	900.0
69	216.0	107.0
70	852.0	560.0
71	45.0	441.0
72	638.0	84.0
73	66.0	842.0
74	290.0	815.0
75	68.0	509.0
76	521.0	672.0
77	100.0	855.0
78	408.0	483.0
79	491.0	455.0
80	536.0	563.0
81	114.0	255.0
82	383.0	536.0
83	902.0	19.0
84	964.0	423.0
85	610.0	39.0
86	719.0	961.0
87	837.0	83.0
88	657.0	185.0
89	289.0	599.0
90	747.0	259.0
91	292.0	168.0
92	552.0	548.0
93	560.0	212.0
94	128.0	950.0
95	211.0	939.0
96	160.0	473.0
97	32.0	550.0
98	353.0	65.0
99	995.0	695.0
100	72.0	691.0
101	19.0	172.0
102	237.0	657.0
103	994.0	883.0
104	457.0	195.0
105	35.0	32.0
106	425.0	288.0
107	12.0	586.0
108	560.0	747.0
109	302.0	972.0
110	891.0	540.0
111	812.0	30.0
112	206.0	371.0
113	241.0	223.0
114	436.0	508.0
115	601.0	81.0
116	298.0	860.0
117	977.0	911.0
118	188.0	304.0
119	545.0	745.0
120	318.0	269.0
121	839.0	548.0
122	107.0	557.0
123	262.0	668.0
124	824.0	424.0
125	859.0	540.0
126	477.0	909.0
127	323.0	639.0
128	954.0	411.0
129	271.0	682.0
130	412.0	518.0
131	751.0	85.0
132	922.0	84.0
133	13.0	661.0
134	354.0	560.0
135	524.0	576.0
136	522.0	565.0
137	228.0	552.0
138	573.0	723.0
139	71.0	320.0
140	627.0	736.0
141	760.0	323.0
142	668.0	714.0
143	777.0	669.0
144	685.0	750.0
145	654.0	333.0
146	63.0	754.0
147	477.0	613.0
148	224.0	523.0
149	662.0	829.0
150	515.0	78.0
151	962.0	282.0
152	351.0	237.0
153	737.0	451.0
154	605.0	442.0
155	472.0	449.0
156	249.0	840.0
157	537.0	728.0
158	244.0	611.0
159	205.0	27.0
160	681.0	545.0
161	921.0	582.0
162	171.0	870.0
163	810.0	570.0
164	487.0	331.0
165	451.0	822.0
166	453.0	518.0
167	888.0	770.0
168	85.0	443.0
169	895.0	651.0
170	984.0	369.0
171	494.0	962.0
172	973.0	891.0
173	721.0	160.0
174	989.0	256.0
175	638.0	621.0
176	223.0	951.0
177	602.0	835.0
178	516.0	523.0
179	780.0	864.0
180	991.0	664.0
181	914.0	45.0
182	949.0	533.0
183	335.0	946.0
184	6.0	338.0
185	234.0	558.0
186	491.0	163.0
187	170.0	763.0
188	77.0	45.0
189	845.0	26.0
190	681.0	306.0
191	107.0	355.0
192	593.0	124.0
193	231.0	497.0
194	881.0	371.0
195	420.0	399.0
196	17.0	680.0
197	581.0	906.0
198	783.0	782.0
199	334.0	715.0
200	395.0	79.0
201	285.0	579.0
202	908.0	478.0
203	532.0	760.0
204	847.0	460.0
205	438.0	733.0
206	102.0	417.0
207	645.0	136.0
208	71.0	222.0
209	337.0	978.0
210	44.0	67.0
211	760.0	84.0
212	849.0	533.0
213	984.0	810.0
214	738.0	919.0
215	918.0	985.0
216	533.0	824.0
217	579.0	119.0
218	14.0	972.0
219	609.0	859.0
220	560.0	291.0
221	32.0	686.0
222	35.0	244.0
223	280.0	871.0
224	940.0	401.0
225	452.0	680.0
226	790.0	271.0
227	832.0	824.0
228	765.0	381.0
229	653.0	162.0
230	594.0	601.0
231	114.0	661.0
232	702.0	726.0
233	649.0	586.0
234	594.0	299.0
235	433.0	966.0
236	499.0	695.0
237	159.0	291.0
238	261.0	445.0
239	46.0	465.0
240	479.0	816.0
241	108.0	11.0
242	898.0	637.0
243	667.0	524.0
244	46.0	379.0
245	120.0	371.0
246	133.0	485.0
247	958.0	649.0
248	182.0	943.0
249	23.0	384.0
250	426.0	116.0
251	36.0	988.0
252	945.0	828.0
253	350.0	956.0
254	560.0	676.0
255	975.0	826.0
256	972.0	624.0
257	836.0	379.0
258	149.0	821.0
259	295.0	92.0
260	977.0	685.0
261	917.0	843.0
262	137.0	226.0
263	477.0	858.0
264	256.0	630.0
265	235.0	922.0
266	292.0	81.0
267	449.0	829.0
268	179.0	845.0
269	136.0	84.0
270	713.0	592.0
271	94.0	858.0
272	697.0	981.0
273	165.0	188.0
274	326.0	480.0
275	750.0	434.0
276	836.0	453.0
277	574.0	982.0
278	386.0	481.0
279	705.0	190.0
280	203.0	945.0
281	816.0	604.0
282	975.0	849.0
283	703.0	397.0
284	483.0	904.0
285	47.0	84.0
286	503.0	851.0
287	438.0	468.0
288	937.0	42.0
289	629.0	845.0
290	209.0	270.0
291	61.0	456.0
292	906.0	841.0
293	624.0	195.0
294	662.0	907.0
295	673.0	555.0
296	307.0	43.0
297	296.0	837.0
298	253.0	75.0
299	829.0	599.0
300	138.0	159.0
301	617.0	363.0
302	710.0	107.0
303	37.0	564.0
304	974.0	967.0
305	759.0	756.0
306	580.0	848.0
307	260.0	64.0
308	466.0	4.0
309	596.0	890.0
310	745.0	159.0
311	411.0	858.0
312	847.0	81.0
313	207.0	27.0
314	912.0	418.0
315	859.0	340.0
316	425.0	770.0
317	375.0	325.0
318	114.0	18.0
319	923.0	49.0
320	87.0	908.0
321	84.0	327.0
322	219.0	869.0
323	378.0	164.0
324	800.0	100.0
325	22.0	470.0
326	417.0	894.0
327	952.0	3.0
328	105.0	215.0
329	80.0	581.0
330	728.0	532.0
331	823.0	527.0
332	625.0	890.0
333	854.0	377.0
334	500.0	240.0
335	126.0	833.0
336	560.0	23.0
337	138.0	966.0
338	909.0	990.0
339	447.0	664.0
340	187.0	283.0
341	435.0	345.0
342	460.0	767.0
343	325.0	901.0
344	362.0	602.0
345	448.0	905.0
346	485.0	74.0
347	754.0	65.0
348	19.0	676.0
349	583.0	926.0
350	646.0	430.0
351	678.0	820.0
352	672.0	469.0
353	451.0	76.0
354	430.0	867.0
355	497.0	468.0
356	910.0	712.0
357	364.0	919.0
358	655.0	436.0
359	580.0	785.0
360	513.0	457.0
361	860.0	683.0
362	486.0	458.0
363	768.0	472.0
364	490.0	89.0
365	936.0	775.0
366	663.0	367.0
367	653.0	403.0
368	800.0	702.0
369	846.0	788.0
370	439.0	890.0
371	343.0	784.0
372	477.0	523.0
373	459.0	894.0
374	422.0	91.0
375	612.0	340.0
376	881.0	418.0
377	665.0	647.0
378	488.0	927.0
379	574.0	373.0
380	318.0	951.0
381	580.0	535.0
382	381.0	57.0
383	578.0	904.0
384	529.0	432.0
385	424.0	941.0
386	564.0	835.0
387	462.0	915.0
388	604.0	438.0
389	711.0	692.0
390	575.0	526.0
391	661.0	448.0
392	585.0	331.0
393	1000.0	582.0
394	694.0	324.0
395	715.0	435.0
396	531.0	377.0
397	916.0	669.0
398	319.0	988.0
399	629.0	379.0
400	748.0	383.0
401	550.0	545.0
402	817.0	728.0
403	886.0	630.0
404	369.0	882.0
405	464.0	790.0
406	459.0	892.0
407	923.0	675.0
408	263.0	731.0
409	910.0	658.0
410	954.0	676.0
411	955.0	758.0
412	463.0	15.0
413	339.0	995.0
414	548.0	384.0
415	646.0	127.0
416	615.0	529.0
417	530.0	491.0
418	892.0	599.0
419	857.0	656.0
420	718.0	361.0
421	620.0	399.0
422	713.0	410.0
423	695.0	486.0
424	379.0	965.0
425	910.0	765.0
426	764.0	542.0
427	746.0	566.0
428	576.0	472.0
429	409.0	909.0
430	758.0	330.0
431	638.0	454.0
432	788.0	471.0
433	395.0	814.0
434	601.0	815.0
435	599.0	443.0
436	612.0	452.0
437	517.0	665.0
438	471.0	427.0
439	684.0	451.0
440	314.0	942.0
441	642.0	441.0
442	467.0	104.0
443	427.0	886.0
444	449.0	692.0
445	720.0	420.0
446	603.0	776.0
447	785.0	108.0
448	705.0	286.0
449	861.0	753.0
450	253.0	757.0
451	582.0	120.0
452	859.0	725.0
453	930.0	746.0
454	707.0	355.0
455	708.0	496.0
456	356.0	949.0
457	194.0	998.0
458	721.0	392.0
459	523.0	914.0
460	249.0	8.0
461	569.0	530.0
462	634.0	437.0
463	697.0	596.0
464	800.0	653.0
465	388.0	283.0
466	610.0	597.0
467	628.0	541.0
468	406.0	480.0
469	519.0	35.0
470	960.0	884.0
471	1000.0	655.0
472	891.0	715.0
473	375.0	465.0
474	653.0	335.0
475	881.0	810.0
476	476.0	502.0
477	512.0	6.0
478	314.0	80.0
479	372.0	452.0
480	796.0	503.0
481	708.0	436.0
482	980.0	890.0
483	821.0	409.0
484	459.0	846.0
485	587.0	505.0
486	396.0	901.0
487	715.0	374.0
488	469.0	73.0
489	528.0	455.0
490	714.0	162.0
491	436.0	399.0
492	441.0	504.0
493	677.0	307.0
494	389.0	851.0
495	979.0	797.0
496	691.0	762.0
497	694.0	486.0
498	322.0	213.0
499	600.0	75.0
500	458.0	506.0
501	368.0	879.0
502	782.0	605.0
503	700.0	177.0
504	553.0	57.0
505	650.0	469.0
506	361.0	931.0
507	535.0	162.0
508	911.0	691.0
509	779.0	427.0
510	580.0	467.0
511	584.0	169.0
512	711.0	433.0
513	485.0	490.0
514	968.0	639.0
515	469.0	82.0
516	538.0	432.0
517	423.0	126.0
518	649.0	580.0
519	741.0	403.0
520	714.0	575.0
521	630.0	532.0
522	937.0	664.0
523	696.0	451.0
524	698.0	403.0
525	561.0	303.0
526	316.0	878.0
527	476.0	920.0
528	503.0	81.0
529	414.0	875.0
530	368.0	922.0
531	966.0	709.0
532	482.0	907.0
533	426.0	613.0
534	619.0	443.0
535	319.0	189.0
536	696.0	579.0
537	561.0	392.0
538	759.0	434.0
539	549.0	403.0
540	498.0	309.0
541	697.0	697.0
542	695.0	444.0
543	385.0	778.0
544	509.0	466.0
545	276.0	695.0
546	383.0	737.0
547	566.0	572.0
548	727.0	389.0
549	693.0	465.0
550	854.0	859.0
551	855.0	780.0
552	449.0	817.0
553	702.0	359.0
554	534.0	381.0
555	514.0	94.0
556	782.0	608.0
557	691.0	459.0
558	953.0	734.0
559	911.0	584.0
560	734.0	515.0
561	794.0	421.0
562	930.0	603.0
563	465.0	430.0
564	715.0	395.0
565	605.0	486.0
566	925.0	589.0
567	903.0	700.0
568	568.0	459.0
569	86.0	841.0
570	936.0	814.0
571	549.0	796.0
572	411.0	888.0
573	953.0	696.0
574	447.0	81.0
575	933.0	643.0
576	696.0	450.0
577	956.0	648.0
578	649.0	450.0
579	936.0	782.0
580	633.0	463.0
581	839.0	490.0
582	542.0	792.0
583	313.0	985.0
584	760.0	439.0
585	374.0	822.0
586	552.0	70.0
587	851.0	771.0
588	926.0	659.0
589	382.0	872.0
590	583.0	543.0
591	677.0	320.0
592	715.0	473.0
593	901.0	671.0
594	663.0	399.0
595	408.0	731.0
596	897.0	704.0
597	929.0	716.0
598	542.0	495.0
599	489.0	528.0
600	713.0	468.0
601	469.0	846.0
602	651.0	455.0
603	261.0	63.0
604	683.0	408.0
605	434.0	996.0
606	788.0	856.0
607	978.0	757.0
608	623.0	345.0
609	543.0	811.0
610	653.0	493.0
611	379.0	843.0
612	506.0	537.0
613	496.0	106.0
614	383.0	774.0
615	462.0	553.0
616	430.0	887.0
617	302.0	731.0
618	406.0	888.0
619	610.0	449.0
620	532.0	555.0
621	564.0	430.0
622	534.0	722.0
623	695.0	476.0
624	434.0	879.0
625	682.0	386.0
626	548.0	215.0
627	352.0	885.0
628	415.0	527.0
629	353.0	967.0
630	896.0	713.0
631	540.0	259.0
632	480.0	99.0
633	839.0	438.0
634	365.0	542.0
635	590.0	403.0
636	481.0	887.0
637	502.0	470.0
638	319.0	886.0
639	439.0	0.0
640	927.0	975.0
641	864.0	824.0
642	462.0	863.0
643	630.0	506.0
644	599.0	377.0
645	367.0	989.0
646	550.0	29.0
647	700.0	450.0
648	542.0	469.0
649	703.0	490.0
650	667.0	751.0
651	364.0	868.0
652	790.0	67.0
653	648.0	405.0
654	491.0	754.0
655	320.0	938.0
656	389.0	659.0
657	568.0	443.0
658	576.0	450.0
659	584.0	364.0
660	333.0	868.0
661	762.0	894.0
662	834.0	595.0
663	430.0	114.0
664	423.0	911.0
665	807.0	652.0
666	522.0	548.0
667	662.0	421.0
668	585.0	319.0
669	418.0	848.0
670	604.0	518.0
671	812.0	478.0
672	638.0	504.0
673	509.0	877.0
674	732.0	547.0
675	927.0	682.0
676	540.0	734.0
677	738.0	408.0
678	417.0	762.0
679	473.0	879.0
680	520.0	472.0
681	593.0	467.0
682	394.0	842.0
683	965.0	697.0
684	515.0	504.0
685	462.0	96.0
686	944.0	706.0
687	656.0	462.0
688	484.0	966.0
689	632.0	71.0
690	966.0	732.0
691	362.0	792.0
692	864.0	521.0
693	878.0	724.0
694	246.0	855.0
695	669.0	545.0
696	438.0	908.0
697	591.0	551.0
698	803.0	761.0
699	889.0	884.0
700	660.0	404.0
701	517.0	469.0
DEMAND_SECTION
1	0
2	2
3	8
4	7
5	5
6	3
7	7
8	6
9	3
10	10
11	2
12	1
13	8
14	8
15	8
16	8
17	4
18	9
19	7
20	9
21	4
22	10
23	4
24	1
25	2
26	1
27	9
28	4
29	4
30	5
31	8
32	2
33	9
34	3
35	1
36	8
37	2
38	8
39	3
40	3
41	2
42	4
43	3
44	2
45	7
46	7
47	9
48	1
49	5
50	7
51	10
52	5
53	9
54	7
55	7
56	1
57	3
58	5
59	9
60	5
61	4
62	5
63	9
64	4
65	4
66	7
67	8
68	1
69	8
70	7
71	2
72	9
73	5
74	1
75	6
76	8
77	4
78	10
79	9
80	8
81	4
82	2
83	8
84	1
85	5
86	2
87	7
88	3
89	1
90	2
91	6
92	5
93	10
94	9
95	6
96	8
97	6
98	1
99	8
100	3
101	8
102	9
103	2
104	9
105	8
106	8
107	2
108	7
109	4
110	10
111	5
112	4
113	10
114	9
115	9
116	7
117	6
118	7
119	10
120	10
121	5
122	6
123	1
124	3
125	4
126	1
127	5
128	8
129	3
130	1
131	4
132	4
133	3
134	8
135	6
136	8
137	1
138	2
139	2
140	8
141	9
142	6
143	10
144	3
145	1
146	5
147	6
148	1
149	4
150	4
151	10
152	8
153	10
154	5
155	5
156	8
157	10
158	1
159	2
160	7
161	4
162	3
163	4
164	4
165	6
166	3
167	1
168	8
169	9
170	8
171	5
172	1
173	2
174	2
175	10
176	9
177	4
178	7
179	7
180	2
181	1
182	4
183	2
184	9
185	6
186	6
187	8
188	9
189	1
190	10
191	2
192	10
193	6
194	4
195	9
196	10
197	1
198	8
199	1
200	4
201	2
202	4
203	2
204	5
205	5
206	9
207	1
208	5
209	7
210	2
211	4
212	1
213	1
214	9
215	3
216	8
217	1
218	4
219	9
220	5
221	8
222	2
223	10
224	1
225	6
226	1
227	9
228	3
229	9
230	4
231	1
232	10
233	8
234	6
235	4
236	8
237	2
238	7
239	8
240	7
241	7
242	6
243	6
244	5
245	6
246	1
247	8
248	10
249	1
250	6
251	1
252	6
253	5
254	6
255	2
256	4
257	4
258	1
259	6
260	10
261	4
262	1
263	8
264	1
265	3
266	1
267	10
268	1
269	5
270	10
271	6
272	7
273	4
274	5
275	4
276	4
277	10
278	10
279	1
280	8
281	5
282	10
283	2
284	9
285	5
286	4
287	3
288	3
289	6
290	9
291	8
292	3
293	9
294	3
295	7
296	10
297	6
298	5
299	10
300	1
301	7
302	7
303	10
304	10
305	3
306	6
307	9
308	7
309	4
310	9
311	8
312	6
313	1
314	1
315	3
316	5
317	10
318	9
319	7
320	2
321	10
322	2
323	7
324	8
325	7
326	9
327	2
328	1
329	4
330	4
331	7
332	7
333	1
334	2
335	6
336	1
337	4
338	6
339	9
340	2
341	2
342	8
343	5
344	9
345	7
346	6
347	4
348	3
349	3
350	2
351	2
352	5
353	5
354	8
355	3
356	6
357	9
358	3
359	9
360	8
361	6
362	6
363	8
364	10
365	10
366	5
367	10
368	2
369	5
370	1
371	7
372	10
373	7
374	1
375	6
376	10
377	10
378	1
379	6
380	1
381	8
382	3
383	1
384	6
385	8
386	1
387	5
388	5
389	10
390	4
391	3
392	6
393	9
394	7
395	6
396	8
397	6
398	8
399	6
400	9
401	2
402	8
403	2
404	8
405	2
406	7
407	8
408	3
409	7
410	4
411	9
412	8
413	6
414	6
415	10
416	9
417	6
418	10
419	5
420	5
421	1
422	6
423	10
424	8
425	1
426	3
427	9
428	10
429	3
430	3
431	9
432	5
433	3
434	3
435	4
436	7
437	8
438	9
439	4
440	3
441	8
442	10
443	3
444	4
445	2
446	1
447	4
448	9
449	8
450	1
451	3
452	5
453	6
454	9
455	5
456	9
457	10
458	2
459	9
460	5
461	2
462	1
463	6
464	4
465	8
466	3
467	5
468	5
469	10
470	9
471	1
472	3
473	10
474	7
475	9
476	8
477	6
478	9
479	9
480	9
481	2
482	10
483	8
484	3
485	8
486	5
487	4
488	3
489	4
490	8
491	6
492	2
493	8
494	3
495	1
496	1
497	2
498	5
499	3
500	1
501	10
502	7
503	5
504	8
505	10
506	1
507	7
508	8
509	3
510	4
511	10
512	3
513	5
514	3
515	2
516	9
517	9
518	6
519	1
520	3
521	10
522	10
523	10
524	10
525	2
526	2
527	10
528	9
529	5
530	4
531	10
532	4
533	10
534	6
535	9
536	2
537	6
538	8
539	7
540	4
541	5
542	5
543	3
544	6
545	4
546	8
547	4
548	2
549	2
550	3
551	1
552	4
553	6
554	4
555	1
556	9
557	8
558	9
559	7
560	3
561	4
562	9
563	5
564	4
565	4
566	7
567	10
568	9
569	7
570	5
571	10
572	5
573	6
574	5
575	2
576	1
577	9
578	1
579	5
580	1
581	9
582	8
583	2
584	10
585	10
586	6
587	10
588	7
589	8
590	5
591	9
592	6
593	7
594	4
595	9
596	9
597	4
598	1
599	3
600	2
601	9
602	8
603	5
604	10
605	6
606	5
607	3
608	4
609	7
610	8
611	5
612	4
613	5
614	2
615	6
616	4
617	10
618	3
619	8
620	4
621	5
622	2
623	1
624	3
625	1
626	7
627	3
628	8
629	3
630	1
631	3
632	7
633	2
634	5
635	4
636	8
637	1
638	7
639	2
640	6
641	4
642	6
643	5
644	2
645	1
646	7
647	1
648	2
649	4
650	1
651	3
652	8
653	3
654	2
655	8
656	8
657	5
658	4
659	7
660	1
661	4
662	7
663	6
664	6
665	2
666	1
667	6
668	8
669	2
670	2
671	3
672	4
673	1
674	2
675	5
676	3
677	1
678	5
679	10
680	6
681	10
682	7
683	7
684	8
685	3
686	5
687	4
688	4
689	5
690	3
691	10
692	6
693	10
694	1
695	7
696	4
697	7
698	4
699	2
700	9
701	2
DEPOT_SECTION
1
-1
EOF
